Route #1: 26 58 10 31 25 55 18 50 9 39 72 12
Route #2: 38 65 66 11 59 14 53 35 7
Route #3: 8 19 54 13 57 15 37 20 70 60 71 69 61 28 62 73
Route #4: 1 22 64 42 43 41 56 23 49 24 3 51 17
Route #5: 40 32 44 16 63 33 6 68 4 75
Route #6: 30 2 74 21 36 47 48 5 29 45 27
Route #7: 46 52 34 67
Cost 728